
n_res = 8;
rcap = [91, 85, 97, 96, 856, 843, 918, 873];
rtype = [1, 1, 1, 1, 2, 2, 2, 2];
n_tasks = 50;
modes =  [{1, 2, 3, 4, 5, 6}, {7, 8, 9, 10, 11, 12}, {13, 14, 15, 16, 17, 18}, {19, 20, 21, 22, 23, 24}, {25, 26, 27, 28, 29, 30}, {31, 32, 33, 34, 35, 36}, {37, 38, 39, 40, 41, 42}, {43, 44, 45, 46, 47, 48}, {49, 50, 51, 52, 53, 54}, {55, 56, 57, 58, 59, 60}, {61, 62, 63, 64, 65, 66}, {67, 68, 69, 70, 71, 72}, {73, 74, 75, 76, 77, 78}, {79, 80, 81, 82, 83, 84}, {85, 86, 87, 88, 89, 90}, {91, 92, 93, 94, 95, 96}, {97, 98, 99, 100, 101, 102}, {103, 104, 105, 106, 107, 108}, {109, 110, 111, 112, 113, 114}, {115, 116, 117, 118, 119, 120}, {121, 122, 123, 124, 125, 126}, {127, 128, 129, 130, 131, 132}, {133, 134, 135, 136, 137, 138}, {139, 140, 141, 142, 143, 144}, {145, 146, 147, 148, 149, 150}, {151, 152, 153, 154, 155, 156}, {157, 158, 159, 160, 161, 162}, {163, 164, 165, 166, 167, 168}, {169, 170, 171, 172, 173, 174}, {175, 176, 177, 178, 179, 180}, {181, 182, 183, 184, 185, 186}, {187, 188, 189, 190, 191, 192}, {193, 194, 195, 196, 197, 198}, {199, 200, 201, 202, 203, 204}, {205, 206, 207, 208, 209, 210}, {211, 212, 213, 214, 215, 216}, {217, 218, 219, 220, 221, 222}, {223, 224, 225, 226, 227, 228}, {229, 230, 231, 232, 233, 234}, {235, 236, 237, 238, 239, 240}, {241, 242, 243, 244, 245, 246}, {247, 248, 249, 250, 251, 252}, {253, 254, 255, 256, 257, 258}, {259, 260, 261, 262, 263, 264}, {265, 266, 267, 268, 269, 270}, {271, 272, 273, 274, 275, 276}, {277, 278, 279, 280, 281, 282}, {283, 284, 285, 286, 287, 288}, {289, 290, 291, 292, 293, 294}, {295, 296, 297, 298, 299, 300}];
succ =  [{48, 32, 26, 19, 17, 16, 13, 5}, {50, 19, 18, 16, 13, 8}, {50, 49, 40, 32, 31, 29, 17, 16, 13}, {47, 44, 40, 30, 24, 19, 16}, {46, 42, 41, 40, 29, 22, 14}, {46, 44, 43, 42, 41, 40, 39, 31, 17}, {49, 45, 44, 40, 38, 35, 31, 29, 16}, {48, 47, 46, 44, 43, 42, 40, 39, 38, 36, 35, 33, 30}, {47, 45, 44, 43, 42, 39, 38, 37, 35, 33, 29, 28}, {47, 42, 41, 39, 36, 28, 20}, {46, 41, 40, 39, 38, 29, 22}, {41, 38, 35, 16}, {44, 43, 41, 39, 30, 22}, {45, 44, 39, 36, 28, 24}, {44, 17}, {46, 43, 42, 39, 36, 33, 28}, {38, 28, 22}, {42, 38, 36, 33, 29}, {45, 41, 37, 35, 33}, {43, 40, 37, 35, 33}, {41, 24}, {37, 36, 35, 33}, {41, 40, 34, 33}, {38, 37, 33}, {40, 35, 34}, {36, 33}, {38, 33}, {34}, {34}, {45}, {33}, {37}, {}, {}, {}, {}, {}, {}, {}, {}, {}, {}, {}, {}, {}, {}, {}, {}, {}, {}];
n_opt = 300;
dur = [2, 17, 22, 23, 27, 29, 2, 6, 12, 18, 19, 21, 2, 9, 13, 14, 16, 22, 4, 5, 6, 10, 15, 20, 10, 11, 12, 13, 21, 25, 7, 8, 10, 14, 25, 29, 9, 12, 17, 18, 29, 30, 3, 4, 6, 18, 19, 26, 1, 4, 7, 9, 18, 23, 12, 20, 22, 26, 28, 29, 2, 7, 8, 21, 22, 23, 2, 3, 8, 10, 11, 12, 3, 4, 16, 28, 29, 30, 8, 12, 17, 25, 26, 30, 1, 3, 20, 21, 28, 29, 1, 5, 10, 11, 13, 28, 1, 3, 5, 11, 12, 18, 1, 4, 9, 11, 16, 29, 6, 15, 23, 24, 26, 27, 3, 9, 17, 27, 29, 30, 7, 12, 18, 20, 25, 29, 5, 15, 16, 20, 24, 29, 9, 13, 25, 26, 28, 29, 4, 10, 14, 16, 19, 24, 1, 8, 16, 25, 27, 29, 4, 9, 10, 11, 18, 27, 3, 4, 13, 15, 19, 25, 2, 9, 11, 23, 28, 29, 2, 14, 20, 21, 22, 23, 9, 14, 15, 20, 23, 29, 2, 3, 4, 7, 22, 30, 8, 15, 18, 21, 22, 25, 6, 8, 19, 22, 24, 27, 10, 21, 22, 25, 26, 28, 1, 4, 20, 21, 22, 23, 3, 4, 16, 20, 26, 30, 1, 6, 8, 14, 21, 29, 3, 4, 7, 11, 16, 21, 1, 6, 8, 18, 20, 27, 1, 7, 9, 19, 22, 24, 3, 4, 14, 15, 19, 20, 4, 12, 14, 24, 28, 29, 2, 6, 23, 25, 26, 29, 1, 9, 12, 15, 24, 26, 2, 12, 19, 23, 24, 25, 3, 13, 14, 15, 23, 27, 1, 2, 3, 6, 9, 21, 2, 8, 17, 21, 25, 27, 5, 7, 12, 17, 25, 29, 2, 3, 4, 5, 14, 25];
rreq = [|5, 5, 5, 4, 3, 3, 19, 17, 15, 15, 13, 11, 21, 21, 19, 19, 18, 16, 16, 15, 13, 11, 8, 5, 14, 12, 12, 10, 9, 6, 16, 16, 15, 13, 12, 11, 22, 21, 21, 20, 18, 17, 24, 21, 16, 12, 12, 8, 20, 15, 10, 8, 7, 1, 29, 25, 22, 20, 15, 13, 10, 10, 10, 10, 10, 10, 18, 16, 15, 13, 13, 12, 14, 11, 10, 9, 8, 7, 27, 23, 19, 19, 16, 12, 20, 18, 16, 11, 7, 4, 9, 8, 8, 7, 6, 6, 3, 3, 3, 2, 2, 2, 3, 3, 3, 3, 3, 3, 4, 4, 3, 3, 1, 1, 18, 16, 11, 10, 4, 3, 10, 10, 10, 9, 9, 9, 21, 20, 19, 18, 18, 17, 25, 21, 21, 17, 16, 14, 22, 20, 19, 18, 17, 17, 17, 12, 10, 9, 7, 5, 11, 10, 10, 10, 10, 10, 27, 25, 22, 19, 12, 12, 15, 15, 15, 15, 15, 15, 27, 26, 25, 25, 23, 23, 29, 26, 26, 23, 22, 22, 16, 14, 14, 14, 13, 12, 27, 27, 25, 23, 23, 22, 27, 25, 24, 22, 21, 20, 12, 11, 9, 9, 7, 6, 25, 21, 19, 15, 13, 10, 8, 8, 6, 6, 4, 3, 27, 24, 22, 20, 19, 15, 12, 10, 10, 10, 8, 8, 19, 18, 17, 16, 14, 14, 28, 26, 25, 25, 24, 23, 18, 18, 18, 18, 18, 18, 18, 17, 14, 14, 10, 7, 28, 23, 16, 16, 12, 6, 18, 14, 13, 11, 9, 6, 16, 13, 12, 10, 10, 9, 29, 24, 19, 16, 16, 12, 30, 23, 22, 19, 17, 13, 28, 28, 26, 24, 23, 22, 24, 23, 23, 21, 20, 19, 23, 22, 20, 20, 18, 17
 |3, 2, 2, 2, 1, 1, 23, 23, 23, 23, 23, 23, 17, 16, 16, 15, 14, 13, 9, 9, 8, 6, 6, 5, 24, 20, 16, 12, 12, 9, 20, 18, 17, 13, 13, 11, 27, 23, 20, 19, 16, 14, 14, 14, 13, 13, 13, 12, 15, 14, 13, 12, 11, 9, 22, 21, 20, 20, 19, 19, 20, 19, 19, 19, 18, 18, 19, 19, 15, 14, 13, 11, 23, 22, 20, 18, 17, 15, 26, 24, 22, 19, 18, 17, 18, 16, 12, 10, 10, 8, 13, 12, 12, 12, 11, 11, 20, 18, 14, 13, 8, 8, 23, 22, 22, 22, 21, 21, 22, 19, 15, 11, 7, 4, 12, 12, 12, 12, 11, 11, 2, 2, 2, 2, 2, 2, 13, 12, 12, 12, 12, 12, 16, 13, 12, 10, 9, 7, 21, 21, 20, 19, 16, 16, 29, 27, 26, 25, 22, 22, 18, 17, 17, 17, 16, 16, 13, 12, 10, 7, 6, 2, 24, 18, 14, 10, 5, 1, 22, 19, 17, 9, 8, 4, 27, 25, 21, 18, 16, 14, 23, 18, 15, 11, 7, 5, 16, 15, 11, 9, 8, 7, 14, 14, 11, 11, 8, 7, 18, 18, 18, 18, 17, 17, 9, 8, 6, 6, 4, 4, 13, 11, 11, 11, 10, 9, 25, 25, 23, 22, 21, 21, 7, 6, 6, 6, 6, 6, 26, 25, 18, 15, 10, 6, 22, 22, 19, 18, 16, 16, 18, 14, 13, 11, 9, 6, 22, 21, 19, 16, 15, 14, 12, 10, 10, 8, 7, 7, 24, 24, 24, 23, 23, 23, 17, 16, 14, 12, 11, 10, 25, 22, 21, 20, 20, 18, 19, 19, 17, 12, 10, 9, 15, 14, 12, 12, 10, 9, 27, 21, 19, 12, 9, 6, 23, 20, 16, 13, 13, 7
 |22, 16, 12, 10, 7, 4, 26, 25, 17, 12, 11, 8, 21, 20, 19, 19, 19, 18, 22, 18, 15, 13, 11, 7, 19, 19, 19, 19, 19, 19, 17, 16, 13, 11, 10, 8, 25, 23, 20, 20, 16, 15, 6, 6, 6, 5, 4, 4, 23, 22, 20, 18, 16, 12, 20, 18, 18, 17, 15, 14, 17, 17, 15, 13, 12, 12, 23, 23, 23, 23, 23, 23, 14, 12, 11, 10, 10, 9, 25, 25, 24, 24, 23, 23, 16, 16, 16, 16, 15, 15, 28, 27, 27, 27, 27, 27, 19, 17, 15, 13, 12, 9, 15, 12, 10, 7, 6, 2, 19, 15, 14, 13, 11, 9, 18, 16, 13, 8, 8, 2, 18, 17, 14, 12, 10, 8, 29, 28, 28, 28, 27, 27, 17, 16, 14, 8, 6, 3, 23, 21, 21, 18, 18, 16, 18, 14, 12, 11, 6, 6, 15, 15, 14, 14, 13, 13, 19, 18, 18, 17, 17, 16, 23, 21, 19, 13, 13, 8, 18, 18, 17, 15, 15, 14, 19, 16, 12, 11, 7, 2, 25, 22, 14, 13, 8, 5, 4, 4, 4, 4, 4, 4, 17, 16, 14, 11, 10, 9, 15, 13, 12, 9, 9, 7, 24, 20, 18, 12, 9, 7, 20, 18, 18, 15, 14, 13, 21, 18, 16, 13, 12, 10, 26, 23, 21, 19, 16, 13, 11, 11, 8, 6, 5, 3, 28, 27, 26, 25, 25, 24, 15, 11, 11, 9, 5, 4, 24, 21, 19, 15, 12, 10, 26, 22, 18, 16, 15, 11, 7, 7, 7, 6, 5, 5, 3, 2, 2, 1, 1, 1, 25, 24, 24, 24, 22, 22, 21, 18, 15, 13, 7, 6, 22, 19, 14, 11, 10, 7, 7, 6, 6, 6, 6, 6, 27, 26, 24, 23, 23, 21
 |18, 17, 16, 16, 15, 14, 23, 22, 20, 17, 15, 11, 12, 12, 12, 12, 12, 12, 26, 25, 23, 22, 19, 16, 29, 28, 27, 26, 25, 25, 26, 25, 25, 24, 24, 24, 17, 13, 11, 9, 3, 1, 9, 8, 7, 7, 6, 5, 15, 14, 14, 13, 13, 12, 21, 20, 14, 14, 10, 4, 27, 26, 26, 24, 23, 23, 4, 3, 3, 3, 3, 3, 28, 27, 26, 24, 24, 21, 5, 4, 3, 2, 1, 1, 16, 12, 10, 8, 6, 4, 22, 19, 15, 13, 8, 6, 20, 17, 13, 11, 10, 6, 30, 27, 27, 24, 23, 21, 13, 13, 13, 13, 13, 13, 1, 1, 1, 1, 1, 1, 18, 17, 16, 15, 13, 13, 16, 15, 11, 10, 7, 3, 28, 28, 27, 27, 26, 26, 29, 27, 25, 24, 23, 22, 18, 18, 18, 18, 18, 18, 11, 9, 6, 4, 2, 2, 22, 20, 15, 11, 8, 7, 4, 3, 3, 3, 3, 3, 17, 15, 13, 10, 9, 7, 18, 13, 10, 9, 8, 5, 9, 9, 9, 9, 9, 9, 21, 19, 19, 17, 15, 13, 26, 24, 19, 15, 13, 10, 28, 28, 28, 27, 27, 26, 12, 11, 10, 10, 9, 7, 26, 26, 23, 21, 20, 17, 16, 15, 14, 12, 8, 7, 13, 11, 8, 6, 5, 1, 24, 21, 18, 16, 11, 10, 27, 23, 20, 18, 11, 11, 14, 12, 10, 10, 6, 5, 30, 28, 26, 26, 25, 23, 25, 24, 23, 23, 23, 22, 28, 24, 21, 19, 15, 15, 4, 3, 3, 2, 2, 2, 7, 7, 7, 7, 7, 7, 28, 27, 27, 26, 26, 25, 21, 18, 13, 11, 6, 1, 29, 24, 19, 13, 13, 7, 8, 7, 7, 7, 7, 7
 |25, 19, 16, 10, 8, 4, 25, 22, 18, 13, 11, 8, 27, 27, 26, 25, 24, 23, 24, 21, 19, 17, 11, 7, 25, 25, 21, 14, 12, 8, 21, 21, 21, 21, 21, 21, 24, 22, 19, 15, 8, 4, 19, 18, 17, 14, 12, 9, 22, 19, 15, 12, 7, 6, 22, 20, 19, 18, 17, 17, 14, 12, 10, 8, 6, 4, 18, 16, 16, 15, 15, 14, 18, 17, 16, 14, 14, 12, 24, 23, 22, 22, 21, 20, 24, 24, 22, 22, 21, 20, 20, 17, 13, 12, 8, 6, 13, 13, 10, 9, 6, 4, 17, 15, 12, 11, 9, 7, 17, 17, 17, 16, 16, 16, 9, 9, 7, 7, 6, 5, 22, 17, 14, 11, 6, 3, 25, 25, 25, 25, 25, 25, 25, 24, 22, 20, 18, 18, 27, 21, 21, 17, 14, 11, 4, 4, 4, 4, 3, 3, 17, 15, 15, 14, 12, 12, 15, 13, 12, 11, 8, 7, 14, 12, 11, 7, 5, 2, 20, 19, 14, 10, 7, 7, 16, 14, 14, 9, 6, 5, 18, 15, 14, 12, 6, 4, 15, 14, 13, 11, 11, 10, 24, 24, 22, 20, 19, 18, 11, 11, 9, 6, 5, 3, 27, 22, 17, 14, 7, 4, 27, 24, 19, 17, 16, 13, 22, 18, 13, 13, 7, 3, 10, 10, 10, 10, 10, 10, 25, 23, 17, 14, 12, 6, 26, 26, 20, 19, 16, 12, 30, 24, 20, 17, 13, 9, 24, 22, 17, 16, 13, 8, 23, 23, 23, 22, 22, 21, 21, 19, 18, 17, 16, 16, 4, 3, 3, 2, 2, 1, 29, 26, 26, 23, 23, 21, 10, 8, 8, 7, 6, 6, 7, 6, 6, 5, 4, 4, 9, 7, 6, 5, 3, 2, 22, 20, 18, 17, 14, 14
 |21, 18, 17, 14, 10, 8, 6, 5, 5, 5, 4, 4, 10, 9, 6, 6, 2, 2, 20, 18, 15, 13, 10, 8, 16, 14, 13, 11, 10, 10, 14, 13, 13, 13, 12, 12, 26, 24, 20, 19, 17, 15, 27, 23, 15, 12, 11, 7, 24, 22, 16, 9, 8, 4, 29, 28, 27, 26, 25, 24, 19, 19, 17, 16, 15, 15, 25, 25, 25, 25, 25, 25, 23, 18, 18, 14, 8, 5, 25, 24, 24, 23, 22, 22, 29, 28, 27, 25, 24, 22, 22, 21, 20, 20, 19, 18, 20, 19, 18, 17, 17, 15, 13, 12, 10, 10, 8, 7, 18, 16, 14, 12, 11, 10, 13, 12, 11, 11, 8, 8, 27, 25, 22, 20, 14, 12, 21, 20, 18, 17, 16, 16, 22, 21, 21, 20, 19, 17, 20, 16, 11, 10, 8, 3, 30, 23, 19, 17, 13, 9, 21, 20, 13, 11, 8, 3, 5, 4, 4, 4, 4, 4, 13, 11, 11, 7, 5, 3, 27, 26, 23, 23, 21, 19, 19, 19, 19, 18, 18, 17, 25, 25, 22, 16, 12, 9, 15, 14, 10, 8, 5, 3, 14, 14, 14, 14, 14, 14, 23, 23, 23, 22, 22, 22, 19, 16, 15, 13, 10, 8, 23, 23, 23, 23, 23, 23, 12, 12, 12, 12, 12, 12, 14, 14, 12, 12, 10, 10, 20, 19, 18, 15, 13, 11, 13, 10, 9, 8, 5, 4, 20, 20, 18, 17, 16, 13, 27, 21, 17, 12, 11, 5, 19, 16, 13, 12, 11, 8, 21, 20, 19, 17, 16, 15, 7, 7, 7, 7, 7, 7, 11, 11, 11, 11, 11, 11, 17, 14, 14, 8, 7, 5, 12, 11, 11, 10, 10, 9, 12, 10, 7, 6, 4, 3, 14, 11, 11, 9, 8, 7
 |23, 23, 21, 20, 20, 19, 29, 24, 19, 16, 10, 7, 8, 8, 8, 7, 7, 6, 28, 25, 21, 19, 16, 14, 4, 4, 4, 4, 4, 4, 21, 20, 19, 19, 18, 18, 22, 21, 21, 21, 20, 20, 25, 18, 17, 13, 10, 6, 22, 20, 15, 15, 9, 7, 20, 19, 19, 19, 18, 18, 24, 20, 18, 15, 9, 7, 26, 23, 20, 17, 11, 11, 21, 19, 17, 17, 14, 14, 19, 15, 14, 12, 8, 5, 24, 23, 20, 17, 17, 15, 27, 20, 20, 11, 10, 2, 24, 22, 18, 18, 14, 12, 15, 15, 15, 15, 15, 15, 24, 23, 23, 22, 22, 22, 27, 22, 18, 14, 6, 6, 28, 28, 26, 24, 21, 21, 17, 17, 16, 16, 14, 14, 13, 11, 11, 11, 9, 9, 21, 20, 19, 18, 17, 17, 21, 21, 21, 21, 20, 20, 19, 18, 17, 17, 15, 14, 27, 25, 22, 19, 14, 11, 25, 22, 22, 20, 20, 18, 14, 13, 12, 12, 11, 9, 6, 6, 6, 6, 5, 5, 14, 10, 10, 6, 4, 3, 13, 13, 13, 13, 12, 12, 20, 16, 16, 8, 6, 2, 22, 19, 19, 17, 15, 12, 17, 14, 11, 11, 7, 7, 10, 8, 7, 7, 5, 5, 19, 18, 15, 12, 10, 9, 27, 23, 22, 20, 17, 15, 23, 23, 23, 23, 23, 23, 12, 11, 10, 10, 8, 8, 28, 28, 27, 26, 24, 22, 14, 14, 14, 14, 13, 13, 22, 18, 14, 13, 9, 3, 26, 23, 20, 20, 16, 13, 21, 20, 19, 17, 16, 16, 25, 24, 23, 22, 22, 21, 22, 18, 15, 10, 9, 3, 29, 21, 19, 10, 7, 5, 23, 22, 19, 15, 12, 12, 18, 18, 17, 16, 15, 15
 |13, 12, 11, 11, 11, 10, 23, 21, 18, 18, 16, 13, 16, 15, 14, 13, 12, 12, 26, 21, 20, 17, 15, 13, 6, 6, 6, 6, 5, 5, 29, 28, 25, 24, 22, 21, 11, 10, 10, 10, 9, 9, 11, 9, 9, 7, 4, 4, 23, 23, 22, 21, 19, 19, 16, 16, 15, 15, 13, 13, 19, 15, 15, 12, 8, 7, 13, 13, 12, 10, 9, 9, 22, 22, 22, 22, 22, 22, 24, 22, 20, 17, 13, 10, 27, 26, 22, 21, 19, 17, 14, 13, 12, 11, 10, 9, 21, 20, 18, 17, 16, 16, 14, 11, 9, 8, 6, 4, 16, 13, 12, 11, 10, 7, 22, 21, 20, 19, 19, 18, 18, 16, 14, 14, 13, 10, 29, 28, 28, 28, 26, 26, 25, 22, 22, 17, 17, 15, 24, 23, 23, 22, 22, 22, 26, 23, 21, 16, 11, 9, 14, 11, 10, 7, 6, 3, 7, 6, 6, 5, 5, 4, 18, 14, 11, 9, 6, 5, 16, 16, 12, 12, 10, 7, 22, 20, 19, 15, 15, 13, 30, 28, 27, 26, 26, 24, 14, 14, 12, 11, 11, 10, 9, 9, 9, 9, 9, 9, 30, 28, 25, 23, 22, 20, 20, 20, 19, 18, 17, 17, 20, 19, 17, 17, 16, 15, 21, 18, 16, 15, 12, 10, 5, 5, 4, 3, 3, 2, 25, 23, 21, 18, 17, 16, 19, 17, 13, 9, 7, 5, 24, 22, 21, 20, 19, 19, 25, 25, 21, 17, 16, 12, 8, 7, 7, 5, 5, 3, 26, 24, 24, 24, 22, 22, 25, 24, 20, 16, 14, 10, 19, 17, 16, 15, 14, 14, 23, 23, 22, 22, 22, 21, 14, 14, 12, 11, 11, 10, 21, 21, 21, 21, 20, 20, 16, 12, 11, 8, 6, 5|];